68 26
100 22
19 118
79 6
26 15
8 109
29 17
99 49
10 23
38 13
30 137
54 103
8 116
28 88
17 57
1 41
30 85
13 192
20 86
7 19
22 142
89 9
33 88
7 43
58 6
13 121
4 56
76 9
7 145
33 9
7 195
35 92
99 44
24 93
40 105
70 56
14 107
41 70
47 63
72 78
97 29
82 42
95 33
19 133
74 45
22 73
2 50
38 9
5 84
74 2
5 97
32 27
43 31
22 86
89 38
72 54
20 74
54 67
44 19
97 3
33 71
7 141
45 3
1 139
8 40
42 3
53 19
47 36
45 23
7 27
1 165
96 34
15 117
29 158
26 41
19 131
22 100
2 160
5 35
51 107
90 43
90 10
79 13
23 29
21 174
4 72
31 79
22 77
39 37
19 14
27 84
14 116
37 123
37 11
32 168
23 80
4 5
29 99
40 67
27 8
